c status 54 1469395397687
c status 31 1469395397688
s td 23 31 60
b 1 54 2 23 41
b 2 24 39 56 47 51 8 48 19 41 49 50
b 3 1 27 33 10 11 17 2 15 6 12 13 20 21 23 28 35 38 41 42 45 46 49 53 58 59
b 4 3 39 56 34 5 47 43 51 8 48 60 19 4 12 13 20 22 28 35 38 41 42 49 50 53 55
b 5 39 56 34 5 47 43 51 8 48 31 60 19 4 12 13 20 22 23 28 35 38 41 42 49 50 53 55
b 6 34 5 47 43 51 8 48 31 60 19 4 12 13 20 22 23 28 35 38 41 42 46 49 50 53 55
b 7 5 47 43 51 36 8 48 31 60 19 4 12 13 20 22 23 28 35 38 41 42 46 49 50 53 55
b 8 47 43 51 36 8 48 31 60 19 4 12 13 20 22 23 28 35 37 38 41 42 46 49 50 53 55
b 9 27 33 10 11 17 2 15 52 6 12 13 16 20 21 23 25 28 30 35 38 41 42 45 46 49 53 58 59
b 10 43 51 36 8 48 31 60 19 40 4 6 12 13 20 22 23 28 35 37 38 41 42 46 49 50 53 55 59
b 11 33 10 11 17 2 15 52 6 12 13 16 20 21 23 25 26 28 30 32 35 38 41 42 45 46 49 53 58 59
b 12 11 17 2 15 52 6 7 9 12 13 16 20 21 23 25 26 28 30 32 35 38 41 42 45 46 49 53 58 59
b 13 17 2 15 52 6 7 9 12 13 16 20 21 23 25 26 28 30 32 35 38 41 42 45 46 49 50 53 58 59
b 14 2 15 52 6 7 9 12 13 14 16 20 21 23 25 26 28 30 32 35 38 41 42 45 46 49 50 53 58 59
b 15 51 36 8 48 31 60 19 40 29 4 6 12 13 14 20 22 23 28 35 37 38 41 42 45 46 49 50 53 55 59
b 16 15 52 6 7 9 12 13 14 16 20 21 22 23 25 26 28 30 32 35 37 38 41 42 45 46 49 50 53 55 58 59
b 17 8 48 31 60 18 19 57 40 44 29 4 6 12 13 14 20 22 23 28 35 37 38 41 42 45 46 49 50 53 55 59
b 18 31 60 18 19 57 40 44 29 4 6 7 12 13 14 20 22 23 28 35 37 38 41 42 45 46 49 50 53 55 59
b 19 60 18 19 57 40 44 29 4 6 7 12 13 14 20 22 23 28 30 35 37 38 41 42 45 46 49 50 53 55 59
b 20 18 19 57 40 44 29 4 6 7 12 13 14 20 22 23 28 30 35 37 38 41 42 45 46 49 50 53 55 58 59
b 21 40 44 29 4 6 7 12 13 14 20 21 22 23 28 30 35 37 38 41 42 45 46 49 50 53 55 58 59
b 22 29 4 6 7 9 12 13 14 16 20 21 22 23 26 28 30 35 37 38 41 42 45 46 49 50 53 55 58 59
b 23 52 4 6 7 9 12 13 14 16 20 21 22 23 25 26 28 30 32 35 37 38 41 42 45 46 49 50 53 55 58 59
1 3
3 9
9 11
11 12
12 13
13 14
14 16
16 23
23 22
22 21
21 20
20 19
19 18
18 17
17 15
15 10
10 8
8 7
7 6
6 5
5 4
5 2
